(set-logic QF_SLIA)
(declare-const result String)
(declare-const attack String)
(declare-const prefix RegLan)
(declare-const infix RegLan)
(declare-const postfix RegLan)
(declare-const postfixs String)

(assert (str.in_re attack (re.++ prefix ((_ re.loop 5000 5000) infix) postfix)))
(assert (= prefix 
     (re.++  (re.++  (re.union  (re.++  (str.to_re "\u{4f}") (re.++  (str.to_re "\u{62}") (re.++  (str.to_re "\u{69}") (re.++  (str.to_re "\u{67}")  (str.to_re "\u{6f}")))))  (re.++  (str.to_re "\u{4f}") (re.++  (str.to_re "\u{42}") (re.++  (str.to_re "\u{49}") (re.++  (str.to_re "\u{47}")  (str.to_re "\u{4f}")))))) (re.* (re.range "0" "9") )) (re.+ (re.range "0" "9") ))
))
(assert (= infix 
        (re.inter (re.+ (re.range "0" "9") )  (re.++ (re.+ (re.range "0" "9") ) (re.++ re.allchar (re.+ (re.range "0" "9") ))) (re.+ (re.range "0" "9") ) )
))
(assert (= postfix 
         (str.to_re "\u{40}")
))
(assert (str.in_re postfixs postfix))
(assert (>= (str.len postfixs) 1))
(assert (= result (str.++ attack postfixs)))
(check-sat)
(get-model)